
Gurobi 11.0.1 (win64) logging started Thu Mar 14 08:02:03 2024

Set parameter LogFile to value "C:\Projetos\Job_Rotation_Algorithms\Outputs\GurobiLogs\gurobi_log-output-4_ros-c19-CostaMirallesModel-NoExtraConstraint-2.log"
Gurobi Optimizer version 11.0.1 build v11.0.1rc0 (win64 - Windows 10.0 (19045.2))

CPU model: 11th Gen Intel(R) Core(TM) i7-1165G7 @ 2.80GHz, instruction set [SSE2|AVX|AVX2|AVX512]
Thread count: 4 physical cores, 8 logical processors, using up to 1 threads


Gurobi 11.0.1 (win64) logging started Fri Mar 15 00:39:30 2024

Set parameter LogFile to value "C:\Projetos\Job_Rotation_Algorithms\Outputs\GurobiLogs\gurobi_log-output-4_ros-c19-CostaMirallesModel-NoExtraConstraint-2.log"
Gurobi Optimizer version 11.0.1 build v11.0.1rc0 (win64 - Windows 10.0 (19045.2))

CPU model: 11th Gen Intel(R) Core(TM) i7-1165G7 @ 2.80GHz, instruction set [SSE2|AVX|AVX2|AVX512]
Thread count: 4 physical cores, 8 logical processors, using up to 1 threads


Gurobi 11.0.1 (win64) logging started Sat Mar 16 12:25:49 2024

Set parameter LogFile to value "C:\Projetos\Job_Rotation_Algorithms\Outputs\GurobiLogs\gurobi_log-output-4_ros-c19-CostaMirallesModel-NoExtraConstraint-2.log"
Gurobi Optimizer version 11.0.1 build v11.0.1rc0 (win64 - Windows 10.0 (19045.2))

CPU model: 11th Gen Intel(R) Core(TM) i7-1165G7 @ 2.80GHz, instruction set [SSE2|AVX|AVX2|AVX512]
Thread count: 4 physical cores, 8 logical processors, using up to 1 threads


Gurobi 11.0.1 (win64) logging started Sat Mar 16 22:31:46 2024

Set parameter LogFile to value "C:\Projetos\Job_Rotation_Algorithms\Outputs\GurobiLogs\gurobi_log-output-4_ros-c19-CostaMirallesModel-NoExtraConstraint-2.log"
Gurobi Optimizer version 11.0.1 build v11.0.1rc0 (win64 - Windows 10.0 (19045.2))

CPU model: 11th Gen Intel(R) Core(TM) i7-1165G7 @ 2.80GHz, instruction set [SSE2|AVX|AVX2|AVX512]
Thread count: 4 physical cores, 8 logical processors, using up to 1 threads

WLS license 901039 - registered to Bitka Analytics
Optimize a model with 420 rows, 835 columns and 6491 nonzeros
Model fingerprint: 0x7a76ce65
Variable types: 2 continuous, 833 integer (833 binary)
Coefficient statistics:
  Matrix range     [1e+00, 3e+01]
  Objective range  [1e+00, 1e+00]
  Bounds range     [1e+00, 4e+01]
  RHS range        [1e+00, 4e+01]
Presolve removed 65 rows and 159 columns
Presolve time: 0.02s
Presolved: 355 rows, 676 columns, 4733 nonzeros
Variable types: 0 continuous, 676 integer (675 binary)

Root relaxation: objective 5.000000e+01, 403 iterations, 0.00 seconds (0.01 work units)

    Nodes    |    Current Node    |     Objective Bounds      |     Work
 Expl Unexpl |  Obj  Depth IntInf | Incumbent    BestBd   Gap | It/Node Time

     0     0   50.00000    0   18          -   50.00000      -     -    0s
     0     0   50.00000    0  144          -   50.00000      -     -    0s
     0     0   50.00000    0  139          -   50.00000      -     -    0s
     0     0   50.00000    0   21          -   50.00000      -     -    0s
     0     0   50.00000    0   26          -   50.00000      -     -    0s
     0     0   50.00000    0   23          -   50.00000      -     -    0s
     0     0   50.00000    0   44          -   50.00000      -     -    0s
     0     0   50.00000    0   57          -   50.00000      -     -    0s
     0     0   50.00000    0   19          -   50.00000      -     -    0s
     0     2   50.00000    0   18          -   50.00000      -     -    1s
*  698    83              20      27.0000000   50.00000  85.2%  68.8    2s
H  997    80                      37.0000000   50.00000  35.1%  78.1    3s
  1341    34   46.96154   17  130   37.00000   48.59575  31.3%  89.6    5s

Cutting planes:
  Gomory: 3
  Cover: 730
  Implied bound: 13
  Clique: 100
  MIR: 53
  StrongCG: 7
  GUB cover: 10
  Inf proof: 4
  Zero half: 2
  RLT: 7
  PSD: 1

Explored 1396 nodes (126748 simplex iterations) in 5.07 seconds (4.31 work units)
Thread count was 1 (of 8 available processors)

Solution count 2: 37 27 

Optimal solution found (tolerance 1.00e-03)
Best objective 3.700000000000e+01, best bound 3.700000000000e+01, gap 0.0000%
